14 84 42 50 2 97 33 34 81 67 31 65 15 1 10 56 49 28 74 21 30 23 82 60 68 59 41 93 45 36 12 27 78 52 20 66 71 37 83 90 25 73 48 86 0 85 94 6 89 69 39 3 32 11 63 61 95 58 29 55 24 96 88 99 35 92 5 77 87 7 40 44 43 19 80 13 62 57 91 98 9 64 75 4 16 54 47 72 79 51 26 17 76 8 22 38 70 46 18 53